p edge 88 329
e 1 5
e 1 6
e 1 7
e 1 10
e 1 11
e 1 21
e 1 30
e 1 31
e 1 36
e 1 37
e 1 40
e 1 42
e 1 44
e 1 52
e 1 58
e 1 67
e 2 12
e 2 13
e 2 15
e 2 16
e 2 22
e 2 24
e 2 26
e 2 31
e 2 33
e 2 37
e 2 39
e 2 51
e 2 56
e 2 60
e 2 64
e 2 70
e 2 71
e 2 76
e 3 13
e 3 20
e 3 28
e 3 32
e 3 41
e 3 50
e 3 58
e 3 59
e 3 60
e 3 61
e 3 65
e 3 72
e 3 82
e 4 9
e 4 13
e 4 19
e 4 23
e 4 45
e 4 49
e 4 63
e 4 69
e 5 8
e 5 15
e 5 25
e 5 30
e 5 39
e 5 44
e 5 49
e 5 55
e 5 59
e 5 63
e 6 10
e 6 33
e 6 44
e 6 54
e 6 58
e 6 69
e 6 71
e 6 73
e 6 81
e 7 10
e 7 11
e 7 15
e 7 22
e 7 23
e 7 24
e 7 27
e 7 37
e 7 42
e 7 52
e 8 13
e 8 20
e 8 28
e 8 30
e 8 32
e 8 35
e 8 38
e 8 41
e 8 44
e 8 49
e 8 55
e 9 13
e 9 16
e 9 19
e 9 36
e 9 41
e 9 47
e 9 75
e 9 79
e 10 33
e 10 46
e 10 62
e 10 69
e 10 71
e 11 16
e 11 27
e 11 31
e 11 32
e 11 37
e 11 42
e 11 52
e 11 85
e 11 86
e 12 17
e 12 21
e 12 34
e 12 37
e 12 56
e 12 57
e 12 62
e 12 78
e 13 19
e 13 22
e 13 32
e 13 45
e 13 58
e 13 60
e 13 76
e 14 40
e 14 50
e 14 53
e 14 55
e 14 66
e 14 75
e 15 24
e 15 30
e 15 31
e 15 43
e 15 64
e 15 68
e 16 21
e 16 22
e 16 26
e 16 27
e 16 33
e 16 36
e 16 54
e 16 71
e 16 76
e 17 18
e 17 21
e 17 29
e 17 34
e 17 46
e 17 47
e 17 57
e 17 62
e 17 78
e 17 80
e 18 21
e 18 22
e 18 26
e 18 29
e 18 33
e 18 34
e 18 44
e 18 45
e 18 46
e 18 62
e 18 70
e 18 80
e 18 84
e 19 35
e 19 45
e 19 49
e 19 55
e 19 63
e 19 67
e 20 27
e 20 28
e 21 26
e 21 27
e 21 29
e 21 33
e 21 34
e 21 36
e 21 57
e 21 62
e 21 78
e 22 34
e 22 36
e 22 37
e 22 44
e 22 60
e 22 62
e 22 70
e 22 76
e 23 27
e 23 39
e 23 68
e 23 77
e 24 30
e 24 39
e 24 40
e 24 43
e 24 51
e 24 56
e 24 64
e 24 74
e 25 32
e 25 38
e 25 48
e 26 27
e 26 33
e 26 34
e 26 46
e 26 70
e 26 71
e 26 83
e 27 33
e 28 30
e 28 35
e 28 41
e 28 43
e 28 49
e 28 63
e 28 64
e 29 34
e 29 45
e 29 46
e 29 57
e 29 80
e 29 84
e 30 35
e 30 40
e 30 41
e 30 63
e 31 67
e 31 85
e 31 86
e 32 38
e 32 82
e 33 34
e 33 69
e 33 70
e 33 71
e 34 36
e 34 44
e 34 46
e 34 57
e 34 62
e 34 70
e 34 78
e 34 80
e 34 84
e 35 38
e 35 41
e 35 48
e 35 55
e 37 42
e 37 52
e 39 43
e 39 51
e 39 56
e 39 59
e 39 68
e 39 77
e 40 53
e 40 66
e 40 74
e 41 59
e 41 61
e 41 72
e 41 79
e 42 52
e 43 49
e 43 64
e 43 68
e 43 77
e 44 58
e 44 62
e 44 70
e 45 67
e 46 62
e 46 70
e 46 80
e 46 83
e 46 84
e 47 75
e 47 83
e 48 53
e 49 55
e 49 63
e 49 64
e 50 55
e 50 66
e 51 56
e 54 73
e 54 81
e 55 66
e 57 62
e 57 78
e 58 60
e 58 82
e 59 61
e 59 64
e 59 72
e 59 74
e 59 87
e 60 76
e 60 82
e 61 65
e 61 72
e 61 88
e 62 70
e 62 78
e 64 87
e 65 72
e 65 88
e 68 77
e 69 71
e 70 71
e 73 81
e 80 84
e 85 86
